(declare-fun v0 () (_ BitVec 15))
(declare-fun v8 () (_ BitVec 16))
(assert
(let (($e15 (_ bv0 15)))
(let (($e17 (_ bv1 14)))
(let (($e154 (concat $e15 true )))
(let (($e155      (bvult v8 $e154)         ))
(let (($e802 (concat $e17 $e155)))
(let (($e803 (bvand $e802 v0)))
(let (($e808 (ite        $e155  $e803 $e802)))
(let (($e922 (   extract        $e808)))
(let (($e2119 (   extract      v8    )))
              (bvult $e2119        $e922  )
                                                                                                                                                                                                                                                                                                                                                                                                                                                                                                                                                                                                                                                                                                                                                                                                                                                                                                                                                                                                                                                                                                                                                                                                                                                                                                                                                                                                                                                                                                                                                                                                                                                                                                                                                                                                                                                                                                                                                                                                                                                                                                                                                                                              )                                                                                                                                                                                                                                                                                                                                                                                                                                                                                                                                                                                                                                                                                                                                                                                                                                                                                                                                                                                                                                                                                                                                                                                                                                            )                                                                                                                 )    ))                                                                                                                                                                                                                                                                                                                                                                                                                                                                                                                                                                                                                                                                      ))                                                                                                            ) )              )
